#######################################
### Exact MIP solver for the HHCRSP ###
#######################################
-- Instance file: new-instances/HHCRSP_100_20_28_1.2_R_RC.txt
-- Max threads: 4
-- Time limit: 999999 seconds
-- Use initial solution: No
Trivial flow violations prevented generating 46626 variables.
Model exported.
Version identifier: 20.1.0.0 | 2020-11-10 | 9bedb6d68
CPXPARAM_Threads                                 4
CPXPARAM_TimeLimit                               999999
Parallel mode: deterministic, using up to 4 threads for concurrent optimization:
 * Starting dual Simplex on 1 thread...
 * Starting Barrier on 3 threads...
Tried aggregator 1 time.
LP Presolve eliminated 5016 rows and 1063 columns.
Reduced LP has 43572 rows, 41571 columns, and 501056 nonzeros.
Presolve time = 0.42 sec. (129.97 ticks)
Symmetry aggregator did 40796 additional substitutions.

Iteration log . . .
Iteration:     1   Dual objective     =             0.000000

Dual crossover.
  Dual:  Fixing 217 variables.
      216 DMoves:  Infeasibility  7.16649149e-14  Objective  1.82666667e+02
        0 DMoves:  Infeasibility  3.39173320e-14  Objective  1.82666667e+02
  Dual:  Pushed 10, exchanged 207.
  Primal:  Fixing 83 variables.
       82 PMoves:  Infeasibility  3.60822483e-16  Objective  1.82666667e+02
        0 PMoves:  Infeasibility  6.10622664e-16  Objective  1.82666667e+02
  Primal:  Pushed 42, exchanged 41.

Dual simplex solved model.


Solution status from MIP model:
-- Processing time: 0.663 sec.
-- Memory used: 101.809 MB
-- Best bound: inf
-- Obj value: 182.667
-- Gap: inf%
-- Total distance: 548
-- Total tardiness: 0
-- Largest tardiness: 0
